c Read 408 clauses.  153 variables
c Placed 408 terms into 100 buckets.
c Bucket 5 Reduced to term with 15 nodes
c Bucket 10 Reduced to term with 19 nodes
c Bucket 15 Reduced to term with 25 nodes
c Bucket 25 Reduced to term with 39 nodes
c Bucket 30 Reduced to term with 35 nodes
c Bucket 35 Reduced to term with 41 nodes
c Bucket 45 Reduced to term with 51 nodes
c Bucket 50 Reduced to term with 49 nodes
c Bucket 55 Reduced to term with 45 nodes
c Bucket 60 Reduced to term with 51 nodes
c Bucket 65 Reduced to term with 43 nodes
c Bucket 70 Reduced to term with 49 nodes
c Bucket 75 Reduced to term with 45 nodes
c Bucket 80 Reduced to term with 47 nodes
c Bucket 85 Reduced to term with 39 nodes
c Bucket 90 Reduced to term with 39 nodes
c Bucket 95 Reduced to term with 9 nodes
c Bucket 110 Reduced to term with 23 nodes
s UNSATISFIABLE
c Unit clauses: Created 915.  Deleted 914.  Remaining = [40495]

c Cache statistics
c ----------------
c Unique Access:  7329
c Unique Chain:   109
c Unique Hit:     670
c Unique Miss:    6534
c => Hit rate =   0.09
c Operator Hits:  5694
c Operator Miss:  8573
c => Hit rate =   0.40
c Swap count =    0

c BDD statistics
c ----------------
c Total BDD nodes produced: 6534
c Input variables: 153
c Input clauses: 408
c Total clauses: 38598
c Unused clause IDs: 1897 (4.9%)
c Maximum live clauses: 30606
c Deleted clauses: 38190
c Final live clauses: 408
c Total variables: 6685
c Elapsed seconds: 0.03
c Set table to size 1224
c Set table to size 1836
c Set table to size 2754
c parsed a formula with 153 variables and 408 clauses
c Set table to size 4131
c Set table to size 6196
c Set table to size 9294
c Set table to size 13941
c Set table to size 20911
c Set table to size 31366
c Set table to size 47049
c Set table to size 70573
c Set table to size 105859
c compress at index 20297: tableSize reduced from 72471 to 58950
c Set table to size 158788
c VERIFIED
c allocated 1024 158788 1530
c Added clauses = 38598.  Deleted clauses = 7993.  Max live clauses = 30606
c verification time = 0.04 secs
